\ENCODING=ISO-8859-1
\Problem name: instances

Maximize
 obj:
Subject To
 c1: 781 x1 + 727 x2 + 456 x3 + 777 x4 + 235 x5 + 155 x6 + 14 x7 + 630 x8
     + 25 x9 + 250 x10 <= 2025
Bounds
 0 <= x1 <= 1
 0 <= x2 <= 1
 0 <= x3 <= 1
 0 <= x4 <= 1
 0 <= x5 <= 1
 0 <= x6 <= 1
 0 <= x7 <= 1
 0 <= x8 <= 1
 0 <= x9 <= 1
 0 <= x10 <= 1
Binaries
 x1  x2  x3  x4  x5  x6  x7  x8  x9  x10 
End
